 C  N 
 1.0000000000000000
    77.9422863405994804    0.0000000000000000    0.0000000000000000
     0.0000000000000000   90.0000000000000000    0.0000000000000000
     0.0000000000000000    0.0000000000000000  100.0000000000000000
   C   N
 1200 600
Direct
  0.0333333333333333  0.0333333333333333  0.5000000000000000
  0.6833333333333333  0.1083333333333333  0.5000000000000000
  0.7000000000000000  0.0833333333333333  0.5000000000000000
  0.7000000000000000  0.0666666666666667  0.5000000000000000
  0.6833333333333333  0.0416666666666667  0.5000000000000000
  0.6666666666666666  0.0333333333333333  0.5000000000000000
  0.6333333333333333  0.0333333333333333  0.5000000000000000
  0.5166666666666666  0.8916666666666667  0.5000000000000000
  0.5000000000000000  0.9166666666666667  0.5000000000000000
  0.6666666666666666  0.1166666666666667  0.5000000000000000
  0.5000000000000000  0.9333333333333333  0.5000000000000000
  0.5333333333333333  0.9666666666666667  0.5000000000000000
  0.5666666666666667  0.9666666666666667  0.5000000000000000
  0.5833333333333333  0.9583333333333334  0.5000000000000000
  0.6000000000000000  0.9333333333333333  0.5000000000000000
  0.6000000000000000  0.9166666666666667  0.5000000000000000
  0.5833333333333333  0.8916666666666667  0.5000000000000000
  0.5666666666666667  0.8833333333333334  0.5000000000000000
  0.5333333333333333  0.8833333333333334  0.5000000000000000
  0.5166666666666666  0.9583333333333334  0.5000000000000000
  0.6333333333333333  0.1166666666666667  0.5000000000000000
  0.6166666666666666  0.1083333333333334  0.5000000000000000
  0.6000000000000000  0.0833333333333334  0.5000000000000000
  0.7000000000000000  0.2833333333333333  0.5000000000000000
  0.7000000000000000  0.2666666666666667  0.5000000000000000
  0.6833333333333333  0.2416666666666667  0.5000000000000000
  0.6666666666666666  0.2333333333333333  0.5000000000000000
  0.6333333333333333  0.2333333333333333  0.5000000000000000
  0.6166666666666666  0.1416666666666667  0.5000000000000000
  0.6000000000000000  0.1666666666666667  0.5000000000000000
  0.6000000000000000  0.1833333333333334  0.5000000000000000
  0.6166666666666666  0.2083333333333333  0.5000000000000000
  0.6333333333333333  0.2166666666666667  0.5000000000000000
  0.6666666666666666  0.2166666666666667  0.5000000000000000
  0.6833333333333333  0.2083333333333333  0.5000000000000000
  0.7000000000000000  0.1833333333333333  0.5000000000000000
  0.7000000000000000  0.1666666666666667  0.5000000000000000
  0.6833333333333333  0.1416666666666667  0.5000000000000000
  0.6666666666666666  0.1333333333333333  0.5000000000000000
  0.6333333333333333  0.1333333333333333  0.5000000000000000
  0.6166666666666666  0.0416666666666667  0.5000000000000000
  0.6000000000000000  0.0666666666666667  0.5000000000000000
  0.5166666666666666  0.7916666666666667  0.5000000000000000
  0.6833333333333333  0.3083333333333333  0.5000000000000000
  0.5000000000000000  0.8166666666666667  0.5000000000000000
  0.5166666666666666  0.8583333333333334  0.5000000000000000
  0.5166666666666666  0.6583333333333333  0.5000000000000000
  0.5333333333333333  0.6666666666666667  0.5000000000000000
  0.5666666666666667  0.6666666666666667  0.5000000000000000
  0.5833333333333333  0.6583333333333333  0.5000000000000000
  0.6000000000000000  0.6333333333333333  0.5000000000000000
  0.6000000000000000  0.6166666666666667  0.5000000000000000
  0.5833333333333333  0.5916666666666667  0.5000000000000000
  0.5666666666666667  0.5833333333333334  0.5000000000000000
  0.5000000000000000  0.6333333333333333  0.5000000000000000
  0.5333333333333333  0.5833333333333334  0.5000000000000000
  0.5000000000000000  0.5166666666666667  0.5000000000000000
  0.5000000000000000  0.5333333333333333  0.5000000000000000
  0.5166666666666666  0.5583333333333333  0.5000000000000000
  0.5333333333333333  0.5666666666666667  0.5000000000000000
  0.5666666666666667  0.5666666666666667  0.5000000000000000
  0.5833333333333333  0.5583333333333333  0.5000000000000000
  0.6000000000000000  0.5333333333333333  0.5000000000000000
  0.6000000000000000  0.5166666666666667  0.5000000000000000
  0.5166666666666666  0.4916666666666667  0.5000000000000000
  0.5000000000000000  0.6166666666666667  0.5000000000000000
  0.5166666666666666  0.5916666666666667  0.5000000000000000
  0.5333333333333333  0.6833333333333333  0.5000000000000000
  0.5333333333333333  0.8666666666666667  0.5000000000000000
  0.5666666666666667  0.8666666666666667  0.5000000000000000
  0.5833333333333333  0.8583333333333334  0.5000000000000000
  0.6000000000000000  0.8333333333333334  0.5000000000000000
  0.6000000000000000  0.8166666666666667  0.5000000000000000
  0.5833333333333333  0.7916666666666667  0.5000000000000000
  0.5666666666666667  0.7833333333333333  0.5000000000000000
  0.5333333333333333  0.7833333333333333  0.5000000000000000
  0.5166666666666666  0.6916666666666667  0.5000000000000000
  0.5000000000000000  0.7166666666666667  0.5000000000000000
  0.5000000000000000  0.7333333333333334  0.5000000000000000
  0.5166666666666666  0.7583333333333334  0.5000000000000000
  0.5333333333333333  0.7666666666666667  0.5000000000000000
  0.5666666666666667  0.7666666666666667  0.5000000000000000
  0.5833333333333333  0.7583333333333334  0.5000000000000000
  0.6000000000000000  0.7333333333333334  0.5000000000000000
  0.6000000000000000  0.7166666666666667  0.5000000000000000
  0.5833333333333333  0.6916666666666667  0.5000000000000000
  0.5666666666666667  0.6833333333333333  0.5000000000000000
  0.5000000000000000  0.8333333333333334  0.5000000000000000
  0.5833333333333333  0.4916666666666667  0.5000000000000000
  0.6666666666666666  0.3166666666666667  0.5000000000000000
  0.6166666666666666  0.3083333333333333  0.5000000000000000
  0.6166666666666666  0.7416666666666667  0.5000000000000000
  0.6000000000000000  0.7666666666666667  0.5000000000000000
  0.6000000000000000  0.7833333333333333  0.5000000000000000
  0.6166666666666666  0.8083333333333333  0.5000000000000000
  0.6333333333333333  0.8166666666666667  0.5000000000000000
  0.6666666666666666  0.8166666666666667  0.5000000000000000
  0.6833333333333333  0.8083333333333333  0.5000000000000000
  0.7000000000000000  0.7833333333333333  0.5000000000000000
  0.6333333333333333  0.8333333333333334  0.5000000000000000
  0.7000000000000000  0.7666666666666667  0.5000000000000000
  0.6666666666666666  0.7333333333333334  0.5000000000000000
  0.6333333333333333  0.7333333333333334  0.5000000000000000
  0.6166666666666666  0.6416666666666667  0.5000000000000000
  0.6000000000000000  0.6666666666666667  0.5000000000000000
  0.6000000000000000  0.6833333333333333  0.5000000000000000
  0.6166666666666666  0.7083333333333334  0.5000000000000000
  0.6333333333333333  0.7166666666666667  0.5000000000000000
  0.6666666666666666  0.7166666666666667  0.5000000000000000
  0.6833333333333333  0.7416666666666667  0.5000000000000000
  0.6666666666666666  0.8333333333333334  0.5000000000000000
  0.6833333333333333  0.8416666666666667  0.5000000000000000
  0.7000000000000000  0.8666666666666667  0.5000000000000000
  0.6000000000000000  0.9666666666666667  0.5000000000000000
  0.6000000000000000  0.9833333333333334  0.5000000000000000
  0.6166666666666666  0.0083333333333333  0.5000000000000000
  0.6333333333333333  0.0166666666666666  0.5000000000000000
  0.6666666666666666  0.0166666666666666  0.5000000000000000
  0.6833333333333333  0.0083333333333333  0.5000000000000000
  0.7000000000000000  0.9833333333333334  0.5000000000000000
  0.7000000000000000  0.9666666666666667  0.5000000000000000
  0.6833333333333333  0.9416666666666667  0.5000000000000000
  0.6666666666666666  0.9333333333333333  0.5000000000000000
  0.6333333333333333  0.9333333333333333  0.5000000000000000
  0.6166666666666666  0.8416666666666667  0.5000000000000000
  0.6000000000000000  0.8666666666666667  0.5000000000000000
  0.6000000000000000  0.8833333333333334  0.5000000000000000
  0.6166666666666666  0.9083333333333333  0.5000000000000000
  0.6333333333333333  0.9166666666666667  0.5000000000000000
  0.6666666666666666  0.9166666666666667  0.5000000000000000
  0.6833333333333333  0.9083333333333333  0.5000000000000000
  0.7000000000000000  0.8833333333333334  0.5000000000000000
  0.6833333333333333  0.7083333333333334  0.5000000000000000
  0.6333333333333333  0.3166666666666667  0.5000000000000000
  0.7000000000000000  0.6833333333333333  0.5000000000000000
  0.6833333333333333  0.6416666666666667  0.5000000000000000
  0.6833333333333333  0.4416666666666667  0.5000000000000000
  0.6666666666666666  0.4333333333333333  0.5000000000000000
  0.6333333333333333  0.4333333333333333  0.5000000000000000
  0.6166666666666666  0.3416666666666667  0.5000000000000000
  0.6000000000000000  0.3666666666666667  0.5000000000000000
  0.6000000000000000  0.3833333333333334  0.5000000000000000
  0.6166666666666666  0.4083333333333333  0.5000000000000000
  0.6333333333333333  0.4166666666666667  0.5000000000000000
  0.7000000000000000  0.4666666666666667  0.5000000000000000
  0.6666666666666666  0.4166666666666667  0.5000000000000000
  0.7000000000000000  0.3833333333333334  0.5000000000000000
  0.7000000000000000  0.3666666666666667  0.5000000000000000
  0.6833333333333333  0.3416666666666667  0.5000000000000000
  0.6666666666666666  0.3333333333333334  0.5000000000000000
  0.6333333333333333  0.3333333333333334  0.5000000000000000
  0.6166666666666666  0.2416666666666667  0.5000000000000000
  0.6000000000000000  0.2666666666666667  0.5000000000000000
  0.6000000000000000  0.2833333333333334  0.5000000000000000
  0.6833333333333333  0.4083333333333333  0.5000000000000000
  0.7000000000000000  0.4833333333333333  0.5000000000000000
  0.6833333333333333  0.5083333333333333  0.5000000000000000
  0.6666666666666666  0.5166666666666667  0.5000000000000000
  0.6666666666666666  0.6333333333333333  0.5000000000000000
  0.6333333333333333  0.6333333333333333  0.5000000000000000
  0.6166666666666666  0.5416666666666667  0.5000000000000000
  0.6000000000000000  0.5666666666666667  0.5000000000000000
  0.6000000000000000  0.5833333333333334  0.5000000000000000
  0.6166666666666666  0.6083333333333334  0.5000000000000000
  0.6333333333333333  0.6166666666666667  0.5000000000000000
  0.6666666666666666  0.6166666666666667  0.5000000000000000
  0.6833333333333333  0.6083333333333334  0.5000000000000000
  0.7000000000000000  0.5833333333333334  0.5000000000000000
  0.7000000000000000  0.5666666666666667  0.5000000000000000
  0.6833333333333333  0.5416666666666667  0.5000000000000000
  0.6666666666666666  0.5333333333333333  0.5000000000000000
  0.6333333333333333  0.5333333333333333  0.5000000000000000
  0.6166666666666666  0.4416666666666667  0.5000000000000000
  0.6000000000000000  0.4666666666666667  0.5000000000000000
  0.6000000000000000  0.4833333333333333  0.5000000000000000
  0.6166666666666666  0.5083333333333333  0.5000000000000000
  0.6333333333333333  0.5166666666666667  0.5000000000000000
  0.7000000000000000  0.6666666666666667  0.5000000000000000
  0.6166666666666666  0.9416666666666667  0.5000000000000000
  0.5666666666666667  0.4833333333333333  0.5000000000000000
  0.5166666666666666  0.3916666666666667  0.5000000000000000
  0.5000000000000000  0.5833333333333334  0.5000000000000000
  0.5000000000000000  0.5666666666666667  0.5000000000000000
  0.4833333333333333  0.5416666666666667  0.5000000000000000
  0.4666666666666666  0.5333333333333333  0.5000000000000000
  0.4333333333333333  0.5333333333333333  0.5000000000000000
  0.4166666666666666  0.4416666666666667  0.5000000000000000
  0.4000000000000000  0.4666666666666667  0.5000000000000000
  0.4000000000000000  0.4833333333333333  0.5000000000000000
  0.4833333333333333  0.6083333333333334  0.5000000000000000
  0.4166666666666666  0.5083333333333333  0.5000000000000000
  0.4666666666666666  0.5166666666666667  0.5000000000000000
  0.4833333333333333  0.5083333333333333  0.5000000000000000
  0.5000000000000000  0.4833333333333333  0.5000000000000000
  0.5000000000000000  0.4666666666666667  0.5000000000000000
  0.4833333333333333  0.4416666666666667  0.5000000000000000
  0.4666666666666666  0.4333333333333333  0.5000000000000000
  0.4333333333333333  0.4333333333333333  0.5000000000000000
  0.4166666666666666  0.3416666666666667  0.5000000000000000
  0.4333333333333333  0.5166666666666667  0.5000000000000000
  0.4666666666666666  0.6166666666666667  0.5000000000000000
  0.4333333333333333  0.6166666666666667  0.5000000000000000
  0.4166666666666666  0.6083333333333334  0.5000000000000000
  0.5000000000000000  0.7666666666666667  0.5000000000000000
  0.4833333333333333  0.7416666666666667  0.5000000000000000
  0.4666666666666666  0.7333333333333334  0.5000000000000000
  0.4333333333333333  0.7333333333333334  0.5000000000000000
  0.4166666666666666  0.6416666666666667  0.5000000000000000
  0.4000000000000000  0.6666666666666667  0.5000000000000000
  0.4000000000000000  0.6833333333333333  0.5000000000000000
  0.4166666666666666  0.7083333333333334  0.5000000000000000
  0.4333333333333333  0.7166666666666667  0.5000000000000000
  0.4666666666666666  0.7166666666666667  0.5000000000000000
  0.4833333333333333  0.7083333333333334  0.5000000000000000
  0.5000000000000000  0.6833333333333333  0.5000000000000000
  0.5000000000000000  0.6666666666666667  0.5000000000000000
  0.4833333333333333  0.6416666666666667  0.5000000000000000
  0.4666666666666666  0.6333333333333333  0.5000000000000000
  0.4333333333333333  0.6333333333333333  0.5000000000000000
  0.4166666666666666  0.5416666666666667  0.5000000000000000
  0.4000000000000000  0.5666666666666667  0.5000000000000000
  0.4000000000000000  0.5833333333333334  0.5000000000000000
  0.4000000000000000  0.3666666666666667  0.5000000000000000
  0.5000000000000000  0.7833333333333333  0.5000000000000000
  0.4000000000000000  0.3833333333333334  0.5000000000000000
  0.4333333333333333  0.4166666666666667  0.5000000000000000
  0.4333333333333333  0.2166666666666667  0.5000000000000000
  0.4666666666666666  0.2166666666666667  0.5000000000000000
  0.4833333333333333  0.2083333333333333  0.5000000000000000
  0.5000000000000000  0.1833333333333333  0.5000000000000000
  0.5000000000000000  0.1666666666666667  0.5000000000000000
  0.4833333333333333  0.1416666666666667  0.5000000000000000
  0.4666666666666666  0.1333333333333333  0.5000000000000000
  0.4333333333333333  0.1333333333333333  0.5000000000000000
  0.4166666666666666  0.2083333333333333  0.5000000000000000
  0.4166666666666666  0.0416666666666667  0.5000000000000000
  0.4000000000000000  0.0833333333333334  0.5000000000000000
  0.4166666666666666  0.1083333333333334  0.5000000000000000
  0.4333333333333333  0.1166666666666667  0.5000000000000000
  0.4666666666666666  0.1166666666666667  0.5000000000000000
  0.4833333333333333  0.1083333333333333  0.5000000000000000
  0.5000000000000000  0.0833333333333333  0.5000000000000000
  0.5000000000000000  0.0666666666666667  0.5000000000000000
  0.4833333333333333  0.0416666666666667  0.5000000000000000
  0.4000000000000000  0.0666666666666667  0.5000000000000000
  0.4000000000000000  0.1833333333333334  0.5000000000000000
  0.4000000000000000  0.1666666666666667  0.5000000000000000
  0.4166666666666666  0.1416666666666667  0.5000000000000000
  0.4666666666666666  0.4166666666666667  0.5000000000000000
  0.4833333333333333  0.4083333333333333  0.5000000000000000
  0.5000000000000000  0.3833333333333334  0.5000000000000000
  0.5000000000000000  0.3666666666666667  0.5000000000000000
  0.4833333333333333  0.3416666666666667  0.5000000000000000
  0.4666666666666666  0.3333333333333334  0.5000000000000000
  0.4333333333333333  0.3333333333333334  0.5000000000000000
  0.4166666666666666  0.2416666666666667  0.5000000000000000
  0.4000000000000000  0.2666666666666667  0.5000000000000000
  0.4000000000000000  0.2833333333333334  0.5000000000000000
  0.4166666666666666  0.3083333333333333  0.5000000000000000
  0.4333333333333333  0.3166666666666667  0.5000000000000000
  0.4666666666666666  0.3166666666666667  0.5000000000000000
  0.4833333333333333  0.3083333333333333  0.5000000000000000
  0.5000000000000000  0.2833333333333333  0.5000000000000000
  0.5000000000000000  0.2666666666666667  0.5000000000000000
  0.4833333333333333  0.2416666666666667  0.5000000000000000
  0.4666666666666666  0.2333333333333333  0.5000000000000000
  0.4333333333333333  0.2333333333333333  0.5000000000000000
  0.4166666666666666  0.4083333333333333  0.5000000000000000
  0.5333333333333333  0.4833333333333333  0.5000000000000000
  0.4833333333333333  0.8083333333333333  0.5000000000000000
  0.4333333333333333  0.8166666666666667  0.5000000000000000
  0.5166666666666666  0.1916666666666667  0.5000000000000000
  0.5000000000000000  0.2166666666666667  0.5000000000000000
  0.5000000000000000  0.2333333333333334  0.5000000000000000
  0.5166666666666666  0.2583333333333334  0.5000000000000000
  0.5333333333333333  0.2666666666666667  0.5000000000000000
  0.5666666666666667  0.2666666666666667  0.5000000000000000
  0.5833333333333333  0.2583333333333334  0.5000000000000000
  0.6000000000000000  0.2333333333333333  0.5000000000000000
  0.5333333333333333  0.2833333333333333  0.5000000000000000
  0.6000000000000000  0.2166666666666667  0.5000000000000000
  0.5666666666666667  0.1833333333333333  0.5000000000000000
  0.5333333333333333  0.1833333333333333  0.5000000000000000
  0.5166666666666666  0.0916666666666667  0.5000000000000000
  0.5000000000000000  0.1166666666666667  0.5000000000000000
  0.5000000000000000  0.1333333333333334  0.5000000000000000
  0.5166666666666666  0.1583333333333334  0.5000000000000000
  0.5333333333333333  0.1666666666666667  0.5000000000000000
  0.5666666666666667  0.1666666666666667  0.5000000000000000
  0.5833333333333333  0.1916666666666667  0.5000000000000000
  0.5666666666666667  0.2833333333333333  0.5000000000000000
  0.5833333333333333  0.2916666666666667  0.5000000000000000
  0.6000000000000000  0.3166666666666667  0.5000000000000000
  0.5000000000000000  0.4166666666666667  0.5000000000000000
  0.5000000000000000  0.4333333333333333  0.5000000000000000
  0.5166666666666666  0.4583333333333334  0.5000000000000000
  0.5333333333333333  0.4666666666666667  0.5000000000000000
  0.5666666666666667  0.4666666666666667  0.5000000000000000
  0.5833333333333333  0.4583333333333334  0.5000000000000000
  0.6000000000000000  0.4333333333333333  0.5000000000000000
  0.6000000000000000  0.4166666666666667  0.5000000000000000
  0.5833333333333333  0.3916666666666667  0.5000000000000000
  0.5666666666666667  0.3833333333333334  0.5000000000000000
  0.5333333333333333  0.3833333333333334  0.5000000000000000
  0.5166666666666666  0.2916666666666667  0.5000000000000000
  0.5000000000000000  0.3166666666666667  0.5000000000000000
  0.5000000000000000  0.3333333333333334  0.5000000000000000
  0.5166666666666666  0.3583333333333333  0.5000000000000000
  0.5333333333333333  0.3666666666666667  0.5000000000000000
  0.5666666666666667  0.3666666666666667  0.5000000000000000
  0.5833333333333333  0.3583333333333333  0.5000000000000000
  0.6000000000000000  0.3333333333333334  0.5000000000000000
  0.5833333333333333  0.1583333333333333  0.5000000000000000
  0.4666666666666666  0.8166666666666667  0.5000000000000000
  0.6000000000000000  0.1333333333333333  0.5000000000000000
  0.5833333333333333  0.0916666666666667  0.5000000000000000
  0.4666666666666666  0.9333333333333333  0.5000000000000000
  0.4333333333333333  0.9333333333333333  0.5000000000000000
  0.4166666666666666  0.8416666666666667  0.5000000000000000
  0.4000000000000000  0.8666666666666667  0.5000000000000000
  0.4000000000000000  0.8833333333333334  0.5000000000000000
  0.4166666666666666  0.9083333333333333  0.5000000000000000
  0.4333333333333333  0.9166666666666667  0.5000000000000000
  0.4666666666666666  0.9166666666666667  0.5000000000000000
  0.4833333333333333  0.9416666666666667  0.5000000000000000
  0.4833333333333333  0.9083333333333333  0.5000000000000000
  0.5000000000000000  0.8666666666666667  0.5000000000000000
  0.4833333333333333  0.8416666666666667  0.5000000000000000
  0.4666666666666666  0.8333333333333334  0.5000000000000000
  0.4333333333333333  0.8333333333333334  0.5000000000000000
  0.4166666666666666  0.7416666666666667  0.5000000000000000
  0.4000000000000000  0.7666666666666667  0.5000000000000000
  0.4000000000000000  0.7833333333333333  0.5000000000000000
  0.4166666666666666  0.8083333333333333  0.5000000000000000
  0.5000000000000000  0.8833333333333334  0.5000000000000000
  0.5000000000000000  0.9666666666666667  0.5000000000000000
  0.5000000000000000  0.9833333333333334  0.5000000000000000
  0.4833333333333333  0.0083333333333333  0.5000000000000000
  0.5666666666666667  0.0833333333333333  0.5000000000000000
  0.5333333333333333  0.0833333333333333  0.5000000000000000
  0.5166666666666666  0.9916666666666667  0.5000000000000000
  0.5000000000000000  0.0166666666666667  0.5000000000000000
  0.5000000000000000  0.0333333333333334  0.5000000000000000
  0.5166666666666666  0.0583333333333334  0.5000000000000000
  0.5333333333333333  0.0666666666666667  0.5000000000000000
  0.5666666666666667  0.0666666666666667  0.5000000000000000
  0.5833333333333333  0.0583333333333333  0.5000000000000000
  0.6000000000000000  0.0333333333333333  0.5000000000000000
  0.6000000000000000  0.0166666666666667  0.5000000000000000
  0.5833333333333333  0.9916666666666667  0.5000000000000000
  0.5666666666666667  0.9833333333333333  0.5000000000000000
  0.5333333333333333  0.9833333333333333  0.5000000000000000
  0.4000000000000000  0.9666666666666667  0.5000000000000000
  0.4000000000000000  0.9833333333333334  0.5000000000000000
  0.4166666666666666  0.0083333333333333  0.5000000000000000
  0.4333333333333333  0.0166666666666666  0.5000000000000000
  0.4666666666666666  0.0166666666666666  0.5000000000000000
  0.6000000000000000  0.1166666666666667  0.5000000000000000
  0.4666666666666666  0.0333333333333333  0.5000000000000000
  0.7333333333333333  0.9833333333333333  0.5000000000000000
  0.7833333333333333  0.9916666666666667  0.5000000000000000
  0.9833333333333333  0.0583333333333333  0.5000000000000000
  0.0000000000000000  0.0333333333333333  0.5000000000000000
  0.0000000000000000  0.0166666666666667  0.5000000000000000
  0.9833333333333333  0.9916666666666667  0.5000000000000000
  0.9666666666666666  0.9833333333333333  0.5000000000000000
  0.9333333333333332  0.9833333333333333  0.5000000000000000
  0.8166666666666667  0.9416666666666667  0.5000000000000000
  0.7999999999999999  0.9666666666666667  0.5000000000000000
  0.9666666666666666  0.0666666666666667  0.5000000000000000
  0.7999999999999999  0.9833333333333334  0.5000000000000000
  0.8333333333333333  0.0166666666666666  0.5000000000000000
  0.8666666666666666  0.0166666666666666  0.5000000000000000
  0.8833333333333333  0.0083333333333333  0.5000000000000000
  0.8999999999999999  0.9833333333333334  0.5000000000000000
  0.8999999999999999  0.9666666666666667  0.5000000000000000
  0.8833333333333333  0.9416666666666667  0.5000000000000000
  0.8666666666666666  0.9333333333333333  0.5000000000000000
  0.8333333333333333  0.9333333333333333  0.5000000000000000
  0.8166666666666667  0.0083333333333333  0.5000000000000000
  0.9333333333333332  0.0666666666666667  0.5000000000000000
  0.9166666666666666  0.0583333333333334  0.5000000000000000
  0.8999999999999999  0.0333333333333334  0.5000000000000000
  0.0000000000000000  0.2333333333333333  0.5000000000000000
  0.0000000000000000  0.2166666666666667  0.5000000000000000
  0.9833333333333333  0.1916666666666667  0.5000000000000000
  0.9666666666666666  0.1833333333333333  0.5000000000000000
  0.9333333333333332  0.1833333333333333  0.5000000000000000
  0.9166666666666666  0.0916666666666667  0.5000000000000000
  0.8999999999999999  0.1166666666666667  0.5000000000000000
  0.8999999999999999  0.1333333333333334  0.5000000000000000
  0.9166666666666666  0.1583333333333334  0.5000000000000000
  0.9333333333333332  0.1666666666666667  0.5000000000000000
  0.9666666666666666  0.1666666666666667  0.5000000000000000
  0.9833333333333333  0.1583333333333333  0.5000000000000000
  0.0000000000000000  0.1333333333333333  0.5000000000000000
  0.0000000000000000  0.1166666666666667  0.5000000000000000
  0.9833333333333333  0.0916666666666667  0.5000000000000000
  0.9666666666666666  0.0833333333333333  0.5000000000000000
  0.9333333333333332  0.0833333333333333  0.5000000000000000
  0.9166666666666666  0.9916666666666667  0.5000000000000000
  0.8999999999999999  0.0166666666666667  0.5000000000000000
  0.8166666666666667  0.8416666666666667  0.5000000000000000
  0.9833333333333333  0.2583333333333334  0.5000000000000000
  0.7999999999999999  0.8666666666666667  0.5000000000000000
  0.8166666666666667  0.9083333333333333  0.5000000000000000
  0.8166666666666667  0.7083333333333334  0.5000000000000000
  0.8333333333333333  0.7166666666666667  0.5000000000000000
  0.8666666666666666  0.7166666666666667  0.5000000000000000
  0.8833333333333333  0.7083333333333334  0.5000000000000000
  0.8999999999999999  0.6833333333333333  0.5000000000000000
  0.8999999999999999  0.6666666666666667  0.5000000000000000
  0.8833333333333333  0.6416666666666667  0.5000000000000000
  0.8666666666666666  0.6333333333333333  0.5000000000000000
  0.7999999999999999  0.6833333333333333  0.5000000000000000
  0.8333333333333333  0.6333333333333333  0.5000000000000000
  0.7999999999999999  0.5666666666666667  0.5000000000000000
  0.7999999999999999  0.5833333333333334  0.5000000000000000
  0.8166666666666667  0.6083333333333334  0.5000000000000000
  0.8333333333333333  0.6166666666666667  0.5000000000000000
  0.8666666666666666  0.6166666666666667  0.5000000000000000
  0.8833333333333333  0.6083333333333334  0.5000000000000000
  0.8999999999999999  0.5833333333333334  0.5000000000000000
  0.8999999999999999  0.5666666666666667  0.5000000000000000
  0.8166666666666667  0.5416666666666667  0.5000000000000000
  0.7999999999999999  0.6666666666666667  0.5000000000000000
  0.8166666666666667  0.6416666666666667  0.5000000000000000
  0.8333333333333333  0.7333333333333334  0.5000000000000000
  0.8333333333333333  0.9166666666666667  0.5000000000000000
  0.8666666666666666  0.9166666666666667  0.5000000000000000
  0.8833333333333333  0.9083333333333333  0.5000000000000000
  0.8999999999999999  0.8833333333333334  0.5000000000000000
  0.8999999999999999  0.8666666666666667  0.5000000000000000
  0.8833333333333333  0.8416666666666667  0.5000000000000000
  0.8666666666666666  0.8333333333333334  0.5000000000000000
  0.8333333333333333  0.8333333333333334  0.5000000000000000
  0.8166666666666667  0.7416666666666667  0.5000000000000000
  0.7999999999999999  0.7666666666666667  0.5000000000000000
  0.7999999999999999  0.7833333333333333  0.5000000000000000
  0.8166666666666667  0.8083333333333333  0.5000000000000000
  0.8333333333333333  0.8166666666666667  0.5000000000000000
  0.8666666666666666  0.8166666666666667  0.5000000000000000
  0.8833333333333333  0.8083333333333333  0.5000000000000000
  0.8999999999999999  0.7833333333333333  0.5000000000000000
  0.8999999999999999  0.7666666666666667  0.5000000000000000
  0.8833333333333333  0.7416666666666667  0.5000000000000000
  0.8666666666666666  0.7333333333333334  0.5000000000000000
  0.7999999999999999  0.8833333333333334  0.5000000000000000
  0.8833333333333333  0.5416666666666667  0.5000000000000000
  0.9666666666666666  0.2666666666666667  0.5000000000000000
  0.9166666666666666  0.2583333333333334  0.5000000000000000
  0.9166666666666666  0.6916666666666667  0.5000000000000000
  0.8999999999999999  0.7166666666666667  0.5000000000000000
  0.8999999999999999  0.7333333333333334  0.5000000000000000
  0.9166666666666666  0.7583333333333334  0.5000000000000000
  0.9333333333333332  0.7666666666666667  0.5000000000000000
  0.9666666666666666  0.7666666666666667  0.5000000000000000
  0.9833333333333333  0.7583333333333334  0.5000000000000000
  0.0000000000000000  0.7333333333333334  0.5000000000000000
  0.9333333333333332  0.7833333333333333  0.5000000000000000
  0.0000000000000000  0.7166666666666667  0.5000000000000000
  0.9666666666666666  0.6833333333333333  0.5000000000000000
  0.9333333333333332  0.6833333333333333  0.5000000000000000
  0.9166666666666666  0.5916666666666667  0.5000000000000000
  0.8999999999999999  0.6166666666666667  0.5000000000000000
  0.8999999999999999  0.6333333333333333  0.5000000000000000
  0.9166666666666666  0.6583333333333333  0.5000000000000000
  0.9333333333333332  0.6666666666666667  0.5000000000000000
  0.9666666666666666  0.6666666666666667  0.5000000000000000
  0.9833333333333333  0.6916666666666667  0.5000000000000000
  0.9666666666666666  0.7833333333333333  0.5000000000000000
  0.9833333333333333  0.7916666666666667  0.5000000000000000
  0.0000000000000000  0.8166666666666667  0.5000000000000000
  0.8999999999999999  0.9166666666666667  0.5000000000000000
  0.8999999999999999  0.9333333333333333  0.5000000000000000
  0.9166666666666666  0.9583333333333334  0.5000000000000000
  0.9333333333333332  0.9666666666666667  0.5000000000000000
  0.9666666666666666  0.9666666666666667  0.5000000000000000
  0.9833333333333333  0.9583333333333334  0.5000000000000000
  0.0000000000000000  0.9333333333333333  0.5000000000000000
  0.0000000000000000  0.9166666666666667  0.5000000000000000
  0.9833333333333333  0.8916666666666667  0.5000000000000000
  0.9666666666666666  0.8833333333333334  0.5000000000000000
  0.9333333333333332  0.8833333333333334  0.5000000000000000
  0.9166666666666666  0.7916666666666667  0.5000000000000000
  0.8999999999999999  0.8166666666666667  0.5000000000000000
  0.8999999999999999  0.8333333333333334  0.5000000000000000